# System setup

units        real
atom_style    atomic
dimension 2
atom_modify map yes
region        box block -1000 1000 -1000 1000 -0.1 0.1
create_box    1 box
create_atoms    1 single 3 0. 0.0
mass        1 40
velocity    all set 0.004056259841515395 -0.0015276572513385352 0 sum yes
pair_style      none
fix         pl all plumed plumedfile plumed.dat outfile log

# Set thermostat

fix        1 all nve
fix        2  all langevin 300 300 100.0 250198


# Set external forces

variable expx atom exp(-100*((x/10)^2))
variable expy atom 0.75*exp(-400*((y/100)^2))
variable fx atom 7.15392*(200*x*v_expx*(1-v_expy)/10-6*(x/10)^5)/10
variable fy atom -7.15392*(800*y*v_expx*v_expy/100+(6*(y/100)^5))/100
fix harm all addforce v_fx v_fy 0.0
fix        3 all enforce2d

# Run

run 50000000
