# System setup

units        real
atom_style    atomic
dimension 2
atom_modify map yes
region        box block -1000 1000 -1000 1000 -0.1 0.1
create_box    1 box
create_atoms    1 single 3 0 0.0
mass        1 40
velocity    all set 0.0007132679848797198 0.0031307100040160233 0 sum yes
pair_style      none
fix        pl all plumed plumedfile plumed.dat outfile log

# Set thermostat

fix        1 all nve
fix        2  all langevin 300 300 100.0 11864035

# Set external forces

variable fx atom 0.59616*x*(10*exp(-(x^2))-0.002)
variable fy atom -0.59616*0.02*y
fix harm all addforce v_fx v_fy 0.0
fix        3 all enforce2d

# Run

run 50000000
